n_res = 4;
rc = [ 44, 44, 43, 51 ];
n_tasks = 60;
d = [ 4, 2, 5, 4, 4, 1, 10, 7, 7, 5, 6, 9, 6, 5, 1, 9, 7, 10, 8, 3, 7, 9, 7, 1, 8, 4, 9, 1, 2, 2, 10, 2, 8, 10, 2, 7, 1, 10, 5, 2, 5, 8, 2, 9, 9, 9, 1, 10, 9, 3, 4, 6, 2, 10, 8, 5, 6, 6, 8, 3 ];
rr = [| 6, 10, 8, 4, 4, 2, 1, 7, 2, 6, 2, 5, 8, 9, 2, 10, 2, 8, 7, 2, 9, 7, 2, 4, 4, 5, 8, 8, 3, 10, 6, 2, 1, 6, 3, 10, 5, 7, 9, 3, 2, 5, 1, 3, 6, 9, 10, 7, 8, 7, 6, 1, 8, 7, 1, 6, 6, 7, 5, 7
      | 6, 6, 1, 5, 6, 1, 3, 7, 8, 3, 10, 2, 7, 3, 5, 1, 6, 10, 10, 10, 5, 5, 9, 5, 8, 9, 5, 9, 2, 1, 8, 2, 5, 3, 2, 9, 4, 3, 10, 6, 4, 6, 9, 8, 3, 8, 4, 3, 8, 10, 9, 1, 5, 8, 4, 2, 3, 1, 1, 3
      | 6, 8, 7, 5, 8, 8, 9, 7, 1, 10, 5, 8, 7, 4, 4, 3, 10, 5, 2, 8, 3, 1, 10, 10, 5, 8, 2, 6, 9, 4, 1, 8, 5, 1, 4, 10, 5, 5, 5, 9, 4, 1, 6, 6, 9, 3, 5, 9, 1, 8, 8, 2, 2, 10, 10, 8, 10, 9, 7, 3
      | 5, 9, 1, 6, 1, 4, 7, 3, 9, 6, 8, 10, 7, 10, 9, 4, 10, 3, 1, 10, 4, 6, 5, 10, 8, 7, 5, 9, 10, 8, 1, 5, 7, 7, 4, 6, 2, 5, 6, 6, 5, 9, 4, 8, 8, 3, 2, 5, 10, 7, 9, 8, 5, 9, 4, 9, 2, 9, 6, 6 |];
suc = [ { 9, 13, 26 },
       { 5, 6, 8 },
       { 4, 20, 52 },
       { 18, 30, 59 },
       { 12, 14, 21 },
       { 7, 30, 39 },
       { 31, 53 },
       { 29, 31, 38 },
       { 10, 11, 17 },
       { 20, 56 },
       { 19, 29, 47 },
       { 15, 16, 18 },
       { 27, 28, 47 },
       { 15, 34, 45 },
       { 22, 24, 31 },
       { 23, 43, 50 },
       { 20, 23, 54 },
       { 29, 34, 35 },
       { 32, 37, 54 },
       { 36, 41, 44 },
       { 22, 25, 35 },
       { 50, 53 },
       { 24, 28, 48 },
       { 25, 27, 41 },
       { 38, 52 },
       { 27, 28, 37 },
       { 51 },
       { 30, 40, 55 },
       { 33 },
       { 33, 56 },
       { 41, 43, 47 },
       { 33, 35, 36 },
       { 46 },
       { 40, 54 },
       { 40, 45 },
       { 38, 42, 45 },
       { 44, 49, 52 },
       { 49 },
       { 42, 44 },
       { 46 },
       { 57 },
       { 43, 49, 50 },
       { 51, 58 },
       { 48 },
       { 46, 58 },
       { 60 },
       { 48 },
       { 59 },
       { 53 },
       { 51 },
       { 57 },
       { 55, 56 },
       { 57 },
       { 55 },
       { 60 },
       { 58, 60 },
       { 59 },
       {  },
       {  },
       {  } ];
